54
75
60	8
59	3
58	8
57	5
56	11
55	8
54	4
53	9
52	7
51	6
50	3
49	6
48	11
47	8
46	6
45	10
44	7
43	8
42	8
41	7
40	4
39	8
38	4
37	7
36	9
35	7
34	9
33	8
32	8
31	8
30	7
29	10
28	7
27	11
26	12
25	4
24	8
23	3
22	9
21	5
20	7
19	7
18	8
17	6
16	6
15	4
14	10
13	8
12	9
11	10
10	10
9	11
8	8
7	5
